
        $ From http://www.csplib.org/Problems/prob009/data/helmut.pdf
        $ Problem number 3
        $ Sequence length : 22
        language ESSENCE' 1.0
        letting sizemaster be 110
        letting sizes be sequence(1,2,3,4,6,8,9,12,14,16,17,18,19,21,22,23,24,26,27,28,50,60)
        